0 0 0 0
0 1 0 0
0 2 0 0
0 3 0 0
0 4 0 2
0 5 0 8
0 6 0 8
0 7 0 9
0 8 0 11
0 9 2 3
0 10 0 11
0 11 0 9
0 12 0 19
0 13 1 8
0 14 1 3
0 15 0 12
0 16 0 11
0 17 0 23
0 18 0 16
0 19 1 15
0 20 2 15
0 21 0 19
0 22 0 15
0 23 2 13
0 24 0 22
0 25 0 17
0 26 0 22
0 27 1 20
0 28 0 22
0 29 0 26
0 30 0 25
0 31 0 27
